\* Source Pyomo model name=unknown *\

max 
x1:
-10.0 x2
-10.0 x3
-10.0 x4
-10.0 x5
-10.0 x6
-10.0 x7
-10.0 x8
-10.0 x9
-10.0 x10
-10.0 x11
-10.0 x12
-10.0 x13
-10.0 x14
-10.0 x15
-10.0 x16
+11.0 x17
+11.0 x18
+11.0 x19
+11.0 x20
+11.0 x21
+11.0 x22
+11.0 x23
+11.0 x24
+11.0 x25
+11.0 x26
+11.0 x27
+11.0 x28
+11.0 x29
+11.0 x30
+11.0 x31
-220.802324411751 x32
-220.802324411751 x33
-220.802324411751 x34
-220.802324411751 x35
-220.802324411751 x36
-220.802324411751 x37
-220.802324411751 x38
-220.802324411751 x39
-220.802324411751 x40
-220.802324411751 x41
-220.802324411751 x42
-220.802324411751 x43
-220.802324411751 x44
-220.802324411751 x45
-220.802324411751 x46
-220.802324411751 x47
-220.802324411751 x48
-220.802324411751 x49
-220.802324411751 x50
-220.802324411751 x51
-220.802324411751 x52

s.t.

c_e_x53_:
+1 x50
+1 x54
+1 x55
-1 x56
= 0

c_e_x57_:
+1 x42
-1 x54
+1 x58
+1 x59
= 0

c_e_x60_:
+1 x39
-1 x58
+1 x61
+1 x62
= 0

c_e_x63_:
+1 x38
-1 x61
+1 x64
+1 x65
= 0

c_e_x66_:
+1 x36
-1 x64
+1 x67
+1 x68
= 0

c_e_x69_:
+1 x51
-1 x67
+1 x70
+1 x71
= 0

c_e_x72_:
-1 x41
+1 x48
-1 x70
+1 x73
+1 x74
= 0

c_e_x75_:
-1 x43
+1 x47
-1 x73
+1 x76
+1 x77
= 0

c_e_x78_:
-1 x45
+1 x52
-1 x76
+1 x79
+1 x80
= 0

c_e_x81_:
-1 x32
+1 x37
-1 x79
+1 x82
+1 x83
= 0

c_e_x84_:
-1 x46
+1 x49
-1 x82
+1 x85
+1 x86
= 0

c_e_x87_:
-1 x33
+1 x34
-1 x85
+1 x88
+1 x89
= 0

c_e_x90_:
-1 x40
-1 x88
+1 x91
+1 x92
= 0

c_e_x93_:
-1 x44
-1 x91
+1 x94
+1 x95
= 0

c_e_x96_:
-1 x35
-1 x94
+1 x97
= 0

c_e_x98_:
+1 x41
-1 x50
+1 x99
+1 x100
= 0

c_e_x101_:
-1 x42
+1 x43
-1 x99
+1 x102
+1 x103
= 0

c_e_x104_:
-1 x39
+1 x45
-1 x102
+1 x105
+1 x106
= 0

c_e_x107_:
+1 x32
-1 x38
-1 x105
+1 x108
+1 x109
= 0

c_e_x110_:
-1 x36
+1 x46
-1 x108
+1 x111
+1 x112
= 0

c_e_x113_:
+1 x33
-1 x51
-1 x111
+1 x114
+1 x115
= 0

c_e_x116_:
+1 x40
-1 x48
-1 x114
+1 x117
+1 x118
= 0

c_e_x119_:
+1 x44
-1 x47
-1 x117
+1 x120
+1 x121
= 0

c_e_x122_:
+1 x35
-1 x52
-1 x120
+1 x123
+1 x124
= 0

c_e_x125_:
-1 x37
-1 x123
+1 x126
+1 x127
= 0

c_e_x128_:
-1 x49
-1 x126
+1 x129
+1 x130
= 0

c_e_x131_:
-1 x34
-1 x129
+1 x132
= 0

c_e_x133_:
+1 x56
+1 x134
= 1

c_e_x135_:
+1 x55
+1 x59
+1 x62
+1 x65
+1 x68
+1 x71
+1 x74
+1 x77
+1 x80
+1 x83
+1 x86
+1 x89
+1 x92
+1 x95
+1 x97
+1 x100
+1 x103
+1 x106
+1 x109
+1 x112
+1 x115
+1 x118
+1 x121
+1 x124
+1 x127
+1 x130
+1 x132
+1 x134
= 1

c_e_x136_:
+1 x2
+1 x137
-1 x138
= 0

c_e_x139_:
+1 x3
-1 x137
+1 x140
-1 x141
= 0

c_e_x142_:
+1 x4
-1 x140
+1 x143
-1 x144
= 0

c_e_x145_:
+1 x5
-1 x143
+1 x146
-1 x147
= 0

c_e_x148_:
+1 x6
-1 x146
+1 x149
-1 x150
= 0

c_e_x151_:
+1 x7
-1 x149
+1 x152
-1 x153
= 0

c_e_x154_:
+1 x8
-1 x152
+1 x155
-1 x156
= 0

c_e_x157_:
+1 x9
-1 x155
+1 x158
-1 x159
= 0

c_e_x160_:
+1 x10
-1 x158
+1 x161
-1 x162
= 0

c_e_x163_:
+1 x11
-1 x161
+1 x164
-1 x165
= 0

c_e_x166_:
+1 x12
-1 x164
+1 x167
-1 x168
= 0

c_e_x169_:
+1 x13
-1 x167
+1 x170
-1 x171
= 0

c_e_x172_:
+1 x14
-1 x170
+1 x173
-1 x174
= 0

c_e_x175_:
+1 x15
-1 x173
+1 x176
-1 x177
= 0

c_e_x178_:
+1 x16
-1 x176
+1 x179
-1 x180
= 0

c_e_x181_:
-1 x17
+1 x182
+1 x183
= 351.0

c_e_x184_:
-1 x18
-1 x182
+1 x185
+1 x186
= 0

c_e_x187_:
-1 x19
-1 x185
+1 x188
+1 x189
= 0

c_e_x190_:
-1 x20
-1 x188
+1 x191
+1 x192
= 0

c_e_x193_:
-1 x21
-1 x191
+1 x194
+1 x195
= 0

c_e_x196_:
-1 x22
-1 x194
+1 x197
+1 x198
= 0

c_e_x199_:
-1 x23
-1 x197
+1 x200
+1 x201
= 0

c_e_x202_:
-1 x24
-1 x200
+1 x203
+1 x204
= 0

c_e_x205_:
-1 x25
-1 x203
+1 x206
+1 x207
= 0

c_e_x208_:
-1 x26
-1 x206
+1 x209
+1 x210
= 0

c_e_x211_:
-1 x27
-1 x209
+1 x212
+1 x213
= 0

c_e_x214_:
-1 x28
-1 x212
+1 x215
+1 x216
= 0

c_e_x217_:
-1 x29
-1 x215
+1 x218
+1 x219
= 0

c_e_x220_:
-1 x30
-1 x218
+1 x221
+1 x222
= 0

c_e_x223_:
-1 x31
-1 x221
+1 x224
+1 x225
= 0

c_e_x226_:
-1 x2
+1 x17
+1 x227
= 0

c_e_x228_:
-1 x3
+1 x18
-1 x227
+1 x229
= 0

c_e_x230_:
-1 x4
+1 x19
-1 x229
+1 x231
= 0

c_e_x232_:
-1 x5
+1 x20
-1 x231
+1 x233
= 0

c_e_x234_:
-1 x6
+1 x21
-1 x233
+1 x235
= 0

c_e_x236_:
-1 x7
+1 x22
-1 x235
+1 x237
= 0

c_e_x238_:
-1 x8
+1 x23
-1 x237
+1 x239
= 0

c_e_x240_:
-1 x9
+1 x24
-1 x239
+1 x241
= 0

c_e_x242_:
-1 x10
+1 x25
-1 x241
+1 x243
= 0

c_e_x244_:
-1 x11
+1 x26
-1 x243
+1 x245
= 0

c_e_x246_:
-1 x12
+1 x27
-1 x245
+1 x247
= 0

c_e_x248_:
-1 x13
+1 x28
-1 x247
+1 x249
= 0

c_e_x250_:
-1 x14
+1 x29
-1 x249
+1 x251
= 0

c_e_x252_:
-1 x15
+1 x30
-1 x251
+1 x253
= 0

c_e_x254_:
-1 x16
+1 x31
-1 x253
+1 x255
= 0

c_u_x256_:
+1 x257
<= 1

c_u_x258_:
+1 x259
<= 1

c_u_x260_:
+1 x261
<= 1

c_u_x262_:
+1 x263
<= 1

c_u_x264_:
+1 x265
<= 1

c_u_x266_:
+1 x267
<= 1

c_u_x268_:
+1 x269
<= 1

c_u_x270_:
+1 x271
<= 1

c_u_x272_:
+1 x273
<= 1

c_u_x274_:
+1 x275
<= 1

c_u_x276_:
+1 x277
<= 1

c_u_x278_:
+1 x279
<= 1

c_u_x280_:
+1 x281
<= 1

c_u_x282_:
+1 x283
<= 1

c_u_x284_:
+1 x285
<= 1

c_u_x286_:
+1 x287
<= 1

c_u_x288_:
+1 x289
<= 1

c_u_x290_:
+1 x291
<= 1

c_u_x292_:
+1 x293
<= 1

c_u_x294_:
+1 x295
<= 1

c_u_x296_:
+1 x297
<= 1

c_u_x298_:
+1 x299
<= 1

c_u_x300_:
+1 x301
<= 1

c_u_x302_:
+1 x303
<= 1

c_u_x304_:
+1 x305
<= 1

c_u_x306_:
+1 x307
<= 1

c_u_x308_:
+1 x309
<= 1

c_u_x310_:
+1 x311
<= 1

c_u_x312_:
+1 x313
<= 1

c_u_x314_:
+1 x315
<= 1

c_u_x316_:
-1 x56
+1 x257
<= 0

c_u_x317_:
-1 x54
+1 x259
<= 0

c_u_x318_:
-1 x58
+1 x261
<= 0

c_u_x319_:
-1 x61
+1 x263
<= 0

c_u_x320_:
-1 x64
+1 x265
<= 0

c_u_x321_:
-1 x67
+1 x267
<= 0

c_u_x322_:
-1 x41
-1 x70
+1 x269
<= 0

c_u_x323_:
-1 x43
-1 x73
+1 x271
<= 0

c_u_x324_:
-1 x45
-1 x76
+1 x273
<= 0

c_u_x325_:
-1 x32
-1 x79
+1 x275
<= 0

c_u_x326_:
-1 x46
-1 x82
+1 x277
<= 0

c_u_x327_:
-1 x33
-1 x85
+1 x279
<= 0

c_u_x328_:
-1 x40
-1 x88
+1 x281
<= 0

c_u_x329_:
-1 x44
-1 x91
+1 x283
<= 0

c_u_x330_:
-1 x35
-1 x94
+1 x285
<= 0

c_u_x331_:
+1 x287
<= 0

c_u_x332_:
+1 x289
<= 0

c_u_x333_:
+1 x291
<= 0

c_u_x334_:
-1 x50
+1 x293
<= 0

c_u_x335_:
-1 x42
-1 x99
+1 x295
<= 0

c_u_x336_:
-1 x39
-1 x102
+1 x297
<= 0

c_u_x337_:
-1 x38
-1 x105
+1 x299
<= 0

c_u_x338_:
-1 x36
-1 x108
+1 x301
<= 0

c_u_x339_:
-1 x51
-1 x111
+1 x303
<= 0

c_u_x340_:
-1 x48
-1 x114
+1 x305
<= 0

c_u_x341_:
-1 x47
-1 x117
+1 x307
<= 0

c_u_x342_:
-1 x52
-1 x120
+1 x309
<= 0

c_u_x343_:
-1 x37
-1 x123
+1 x311
<= 0

c_u_x344_:
-1 x49
-1 x126
+1 x313
<= 0

c_u_x345_:
-1 x34
-1 x129
+1 x315
<= 0

c_u_x346_:
-1 x2
+35.0 x257
<= 0

c_u_x347_:
-1 x3
+35.0 x259
<= 0

c_u_x348_:
-1 x4
+35.0 x261
<= 0

c_u_x349_:
-1 x5
+35.0 x263
<= 0

c_u_x350_:
-1 x6
+35.0 x265
<= 0

c_u_x351_:
-1 x7
+35.0 x267
<= 0

c_u_x352_:
-1 x8
+35.0 x269
<= 0

c_u_x353_:
-1 x9
+35.0 x271
<= 0

c_u_x354_:
-1 x10
+35.0 x273
<= 0

c_u_x355_:
-1 x11
+35.0 x275
<= 0

c_u_x356_:
-1 x12
+35.0 x277
<= 0

c_u_x357_:
-1 x13
+35.0 x279
<= 0

c_u_x358_:
-1 x14
+35.0 x281
<= 0

c_u_x359_:
-1 x15
+35.0 x283
<= 0

c_u_x360_:
-1 x16
+35.0 x285
<= 0

c_u_x361_:
-1 x17
+50.0 x287
<= 0

c_u_x362_:
-1 x18
+50.0 x289
<= 0

c_u_x363_:
-1 x19
+50.0 x291
<= 0

c_u_x364_:
-1 x20
+50.0 x293
<= 0

c_u_x365_:
-1 x21
+50.0 x295
<= 0

c_u_x366_:
-1 x22
+50.0 x297
<= 0

c_u_x367_:
-1 x23
+50.0 x299
<= 0

c_u_x368_:
-1 x24
+50.0 x301
<= 0

c_u_x369_:
-1 x25
+50.0 x303
<= 0

c_u_x370_:
-1 x26
+50.0 x305
<= 0

c_u_x371_:
-1 x27
+50.0 x307
<= 0

c_u_x372_:
-1 x28
+50.0 x309
<= 0

c_u_x373_:
-1 x29
+50.0 x311
<= 0

c_u_x374_:
-1 x30
+50.0 x313
<= 0

c_u_x375_:
-1 x31
+50.0 x315
<= 0

c_u_x376_:
+1 x2
-322.0 x257
<= 0

c_u_x377_:
+1 x3
-322.0 x259
<= 0

c_u_x378_:
+1 x4
-322.0 x261
<= 0

c_u_x379_:
+1 x5
-322.0 x263
<= 0

c_u_x380_:
+1 x6
-322.0 x265
<= 0

c_u_x381_:
+1 x7
-322.0 x267
<= 0

c_u_x382_:
+1 x8
-322.0 x269
<= 0

c_u_x383_:
+1 x9
-322.0 x271
<= 0

c_u_x384_:
+1 x10
-322.0 x273
<= 0

c_u_x385_:
+1 x11
-322.0 x275
<= 0

c_u_x386_:
+1 x12
-322.0 x277
<= 0

c_u_x387_:
+1 x13
-322.0 x279
<= 0

c_u_x388_:
+1 x14
-322.0 x281
<= 0

c_u_x389_:
+1 x15
-322.0 x283
<= 0

c_u_x390_:
+1 x16
-322.0 x285
<= 0

c_u_x391_:
+1 x17
-390.0 x287
<= 0

c_u_x392_:
+1 x18
-390.0 x289
<= 0

c_u_x393_:
+1 x19
-390.0 x291
<= 0

c_u_x394_:
+1 x20
-390.0 x293
<= 0

c_u_x395_:
+1 x21
-390.0 x295
<= 0

c_u_x396_:
+1 x22
-390.0 x297
<= 0

c_u_x397_:
+1 x23
-390.0 x299
<= 0

c_u_x398_:
+1 x24
-390.0 x301
<= 0

c_u_x399_:
+1 x25
-390.0 x303
<= 0

c_u_x400_:
+1 x26
-390.0 x305
<= 0

c_u_x401_:
+1 x27
-390.0 x307
<= 0

c_u_x402_:
+1 x28
-390.0 x309
<= 0

c_u_x403_:
+1 x29
-390.0 x311
<= 0

c_u_x404_:
+1 x30
-390.0 x313
<= 0

c_u_x405_:
+1 x31
-390.0 x315
<= 0

c_l_x406_:
+1 x138
>= 33.0

c_l_x407_:
+1 x141
>= 33.0

c_l_x408_:
+1 x144
>= 33.0

c_l_x409_:
+1 x147
>= 33.0

c_l_x410_:
+1 x150
>= 33.0

c_l_x411_:
+1 x153
>= 33.0

c_l_x412_:
+1 x156
>= 33.0

c_l_x413_:
+1 x159
>= 33.0

c_l_x414_:
+1 x162
>= 33.0

c_l_x415_:
+1 x165
>= 33.0

c_l_x416_:
+1 x168
>= 33.0

c_l_x417_:
+1 x171
>= 33.0

c_l_x418_:
+1 x174
>= 33.0

c_l_x419_:
+1 x177
>= 33.0

c_l_x420_:
+1 x180
>= 33.0

c_l_x421_:
+1 x183
>= 39.0

c_l_x422_:
+1 x186
>= 39.0

c_l_x423_:
+1 x189
>= 39.0

c_l_x424_:
+1 x192
>= 39.0

c_l_x425_:
+1 x195
>= 39.0

c_l_x426_:
+1 x198
>= 39.0

c_l_x427_:
+1 x201
>= 39.0

c_l_x428_:
+1 x204
>= 39.0

c_l_x429_:
+1 x207
>= 39.0

c_l_x430_:
+1 x210
>= 39.0

c_l_x431_:
+1 x213
>= 39.0

c_l_x432_:
+1 x216
>= 39.0

c_l_x433_:
+1 x219
>= 39.0

c_l_x434_:
+1 x222
>= 39.0

c_l_x435_:
+1 x225
>= 39.0

c_u_x436_:
+1 x138
<= 99.0

c_u_x437_:
+1 x141
<= 99.0

c_u_x438_:
+1 x144
<= 99.0

c_u_x439_:
+1 x147
<= 99.0

c_u_x440_:
+1 x150
<= 99.0

c_u_x441_:
+1 x153
<= 99.0

c_u_x442_:
+1 x156
<= 99.0

c_u_x443_:
+1 x159
<= 99.0

c_u_x444_:
+1 x162
<= 99.0

c_u_x445_:
+1 x165
<= 99.0

c_u_x446_:
+1 x168
<= 99.0

c_u_x447_:
+1 x171
<= 99.0

c_u_x448_:
+1 x174
<= 99.0

c_u_x449_:
+1 x177
<= 99.0

c_u_x450_:
+1 x180
<= 99.0

c_u_x451_:
+1 x183
<= 39.0

c_u_x452_:
+1 x186
<= 39.0

c_u_x453_:
+1 x189
<= 39.0

c_u_x454_:
+1 x192
<= 39.0

c_u_x455_:
+1 x195
<= 39.0

c_u_x456_:
+1 x198
<= 39.0

c_u_x457_:
+1 x201
<= 39.0

c_u_x458_:
+1 x204
<= 39.0

c_u_x459_:
+1 x207
<= 39.0

c_u_x460_:
+1 x210
<= 39.0

c_u_x461_:
+1 x213
<= 39.0

c_u_x462_:
+1 x216
<= 39.0

c_u_x463_:
+1 x219
<= 39.0

c_u_x464_:
+1 x222
<= 39.0

c_u_x465_:
+1 x225
<= 39.0

c_l_x466_:
+1 x137
>= 0

c_l_x467_:
+1 x140
>= 0

c_l_x468_:
+1 x143
>= 0

c_l_x469_:
+1 x146
>= 0

c_l_x470_:
+1 x149
>= 0

c_l_x471_:
+1 x152
>= 0

c_l_x472_:
+1 x155
>= 0

c_l_x473_:
+1 x158
>= 0

c_l_x474_:
+1 x161
>= 0

c_l_x475_:
+1 x164
>= 0

c_l_x476_:
+1 x167
>= 0

c_l_x477_:
+1 x170
>= 0

c_l_x478_:
+1 x173
>= 0

c_l_x479_:
+1 x176
>= 0

c_l_x480_:
+1 x179
>= 0

c_l_x481_:
+1 x182
>= 0

c_l_x482_:
+1 x185
>= 0

c_l_x483_:
+1 x188
>= 0

c_l_x484_:
+1 x191
>= 0

c_l_x485_:
+1 x194
>= 0

c_l_x486_:
+1 x197
>= 0

c_l_x487_:
+1 x200
>= 0

c_l_x488_:
+1 x203
>= 0

c_l_x489_:
+1 x206
>= 0

c_l_x490_:
+1 x209
>= 0

c_l_x491_:
+1 x212
>= 0

c_l_x492_:
+1 x215
>= 0

c_l_x493_:
+1 x218
>= 0

c_l_x494_:
+1 x221
>= 0

c_l_x495_:
+1 x224
>= 0

c_u_x496_:
+1 x137
<= 594.0

c_u_x497_:
+1 x140
<= 594.0

c_u_x498_:
+1 x143
<= 594.0

c_u_x499_:
+1 x146
<= 594.0

c_u_x500_:
+1 x149
<= 594.0

c_u_x501_:
+1 x152
<= 594.0

c_u_x502_:
+1 x155
<= 594.0

c_u_x503_:
+1 x158
<= 594.0

c_u_x504_:
+1 x161
<= 594.0

c_u_x505_:
+1 x164
<= 594.0

c_u_x506_:
+1 x167
<= 594.0

c_u_x507_:
+1 x170
<= 594.0

c_u_x508_:
+1 x173
<= 594.0

c_u_x509_:
+1 x176
<= 594.0

c_u_x510_:
+1 x179
<= 594.0

c_u_x511_:
+1 x182
<= 351.0

c_u_x512_:
+1 x185
<= 351.0

c_u_x513_:
+1 x188
<= 351.0

c_u_x514_:
+1 x191
<= 351.0

c_u_x515_:
+1 x194
<= 351.0

c_u_x516_:
+1 x197
<= 351.0

c_u_x517_:
+1 x200
<= 351.0

c_u_x518_:
+1 x203
<= 351.0

c_u_x519_:
+1 x206
<= 351.0

c_u_x520_:
+1 x209
<= 351.0

c_u_x521_:
+1 x212
<= 351.0

c_u_x522_:
+1 x215
<= 351.0

c_u_x523_:
+1 x218
<= 351.0

c_u_x524_:
+1 x221
<= 351.0

c_u_x525_:
+1 x224
<= 351.0

c_u_x526_:
+1 x227
<= 200.0

c_u_x527_:
+1 x229
<= 200.0

c_u_x528_:
+1 x231
<= 200.0

c_u_x529_:
+1 x233
<= 200.0

c_u_x530_:
+1 x235
<= 200.0

c_u_x531_:
+1 x237
<= 200.0

c_u_x532_:
+1 x239
<= 200.0

c_u_x533_:
+1 x241
<= 200.0

c_u_x534_:
+1 x243
<= 200.0

c_u_x535_:
+1 x245
<= 200.0

c_u_x536_:
+1 x247
<= 200.0

c_u_x537_:
+1 x249
<= 200.0

c_u_x538_:
+1 x251
<= 200.0

c_u_x539_:
+1 x253
<= 200.0

c_u_x540_:
+1 x255
<= 200.0

c_l_x541_:
+1 x227
>= 0

c_l_x542_:
+1 x229
>= 0

c_l_x543_:
+1 x231
>= 0

c_l_x544_:
+1 x233
>= 0

c_l_x545_:
+1 x235
>= 0

c_l_x546_:
+1 x237
>= 0

c_l_x547_:
+1 x239
>= 0

c_l_x548_:
+1 x241
>= 0

c_l_x549_:
+1 x243
>= 0

c_l_x550_:
+1 x245
>= 0

c_l_x551_:
+1 x247
>= 0

c_l_x552_:
+1 x249
>= 0

c_l_x553_:
+1 x251
>= 0

c_l_x554_:
+1 x253
>= 0

c_l_x555_:
+1 x255
>= 0

bounds
   0 <= x2 <= +1e30
   0 <= x3 <= +1e30
   0 <= x4 <= +1e30
   0 <= x5 <= +1e30
   0 <= x6 <= +1e30
   0 <= x7 <= +1e30
   0 <= x8 <= +1e30
   0 <= x9 <= +1e30
   0 <= x10 <= +1e30
   0 <= x11 <= +1e30
   0 <= x12 <= +1e30
   0 <= x13 <= +1e30
   0 <= x14 <= +1e30
   0 <= x15 <= +1e30
   0 <= x16 <= +1e30
   0 <= x17 <= +1e30
   0 <= x18 <= +1e30
   0 <= x19 <= +1e30
   0 <= x20 <= +1e30
   0 <= x21 <= +1e30
   0 <= x22 <= +1e30
   0 <= x23 <= +1e30
   0 <= x24 <= +1e30
   0 <= x25 <= +1e30
   0 <= x26 <= +1e30
   0 <= x27 <= +1e30
   0 <= x28 <= +1e30
   0 <= x29 <= +1e30
   0 <= x30 <= +1e30
   0 <= x31 <= +1e30
   0 <= x32 <= 1
   0 <= x33 <= 1
   0 <= x34 <= 1
   0 <= x35 <= 1
   0 <= x36 <= 1
   0 <= x37 <= 1
   0 <= x38 <= 1
   0 <= x39 <= 1
   0 <= x40 <= 1
   0 <= x41 <= 1
   0 <= x42 <= 1
   0 <= x43 <= 1
   0 <= x44 <= 1
   0 <= x45 <= 1
   0 <= x46 <= 1
   0 <= x47 <= 1
   0 <= x48 <= 1
   0 <= x49 <= 1
   0 <= x50 <= 1
   0 <= x51 <= 1
   0 <= x52 <= 1
   0 <= x54 <= 1
   0 <= x55 <= 1
   0 <= x56 <= 1
   0 <= x58 <= 1
   0 <= x59 <= 1
   0 <= x61 <= 1
   0 <= x62 <= 1
   0 <= x64 <= 1
   0 <= x65 <= 1
   0 <= x67 <= 1
   0 <= x68 <= 1
   0 <= x70 <= 1
   0 <= x71 <= 1
   0 <= x73 <= 1
   0 <= x74 <= 1
   0 <= x76 <= 1
   0 <= x77 <= 1
   0 <= x79 <= 1
   0 <= x80 <= 1
   0 <= x82 <= 1
   0 <= x83 <= 1
   0 <= x85 <= 1
   0 <= x86 <= 1
   0 <= x88 <= 1
   0 <= x89 <= 1
   0 <= x91 <= 1
   0 <= x92 <= 1
   0 <= x94 <= 1
   0 <= x95 <= 1
   0 <= x97 <= 1
   0 <= x99 <= 1
   0 <= x100 <= 1
   0 <= x102 <= 1
   0 <= x103 <= 1
   0 <= x105 <= 1
   0 <= x106 <= 1
   0 <= x108 <= 1
   0 <= x109 <= 1
   0 <= x111 <= 1
   0 <= x112 <= 1
   0 <= x114 <= 1
   0 <= x115 <= 1
   0 <= x117 <= 1
   0 <= x118 <= 1
   0 <= x120 <= 1
   0 <= x121 <= 1
   0 <= x123 <= 1
   0 <= x124 <= 1
   0 <= x126 <= 1
   0 <= x127 <= 1
   0 <= x129 <= 1
   0 <= x130 <= 1
   0 <= x132 <= 1
   0 <= x134 <= 1
   0 <= x137 <= +1e30
   0 <= x138 <= +1e30
   0 <= x140 <= +1e30
   0 <= x141 <= +1e30
   0 <= x143 <= +1e30
   0 <= x144 <= +1e30
   0 <= x146 <= +1e30
   0 <= x147 <= +1e30
   0 <= x149 <= +1e30
   0 <= x150 <= +1e30
   0 <= x152 <= +1e30
   0 <= x153 <= +1e30
   0 <= x155 <= +1e30
   0 <= x156 <= +1e30
   0 <= x158 <= +1e30
   0 <= x159 <= +1e30
   0 <= x161 <= +1e30
   0 <= x162 <= +1e30
   0 <= x164 <= +1e30
   0 <= x165 <= +1e30
   0 <= x167 <= +1e30
   0 <= x168 <= +1e30
   0 <= x170 <= +1e30
   0 <= x171 <= +1e30
   0 <= x173 <= +1e30
   0 <= x174 <= +1e30
   0 <= x176 <= +1e30
   0 <= x177 <= +1e30
   0 <= x179 <= +1e30
   0 <= x180 <= +1e30
   0 <= x182 <= +1e30
   0 <= x183 <= +1e30
   0 <= x185 <= +1e30
   0 <= x186 <= +1e30
   0 <= x188 <= +1e30
   0 <= x189 <= +1e30
   0 <= x191 <= +1e30
   0 <= x192 <= +1e30
   0 <= x194 <= +1e30
   0 <= x195 <= +1e30
   0 <= x197 <= +1e30
   0 <= x198 <= +1e30
   0 <= x200 <= +1e30
   0 <= x201 <= +1e30
   0 <= x203 <= +1e30
   0 <= x204 <= +1e30
   0 <= x206 <= +1e30
   0 <= x207 <= +1e30
   0 <= x209 <= +1e30
   0 <= x210 <= +1e30
   0 <= x212 <= +1e30
   0 <= x213 <= +1e30
   0 <= x215 <= +1e30
   0 <= x216 <= +1e30
   0 <= x218 <= +1e30
   0 <= x219 <= +1e30
   0 <= x221 <= +1e30
   0 <= x222 <= +1e30
   0 <= x224 <= +1e30
   0 <= x225 <= +1e30
   0 <= x227 <= +1e30
   0 <= x229 <= +1e30
   0 <= x231 <= +1e30
   0 <= x233 <= +1e30
   0 <= x235 <= +1e30
   0 <= x237 <= +1e30
   0 <= x239 <= +1e30
   0 <= x241 <= +1e30
   0 <= x243 <= +1e30
   0 <= x245 <= +1e30
   0 <= x247 <= +1e30
   0 <= x249 <= +1e30
   0 <= x251 <= +1e30
   0 <= x253 <= +1e30
   0 <= x255 <= +1e30
   0 <= x257 <= 1
   0 <= x259 <= 1
   0 <= x261 <= 1
   0 <= x263 <= 1
   0 <= x265 <= 1
   0 <= x267 <= 1
   0 <= x269 <= 1
   0 <= x271 <= 1
   0 <= x273 <= 1
   0 <= x275 <= 1
   0 <= x277 <= 1
   0 <= x279 <= 1
   0 <= x281 <= 1
   0 <= x283 <= 1
   0 <= x285 <= 1
   0 <= x287 <= 1
   0 <= x289 <= 1
   0 <= x291 <= 1
   0 <= x293 <= 1
   0 <= x295 <= 1
   0 <= x297 <= 1
   0 <= x299 <= 1
   0 <= x301 <= 1
   0 <= x303 <= 1
   0 <= x305 <= 1
   0 <= x307 <= 1
   0 <= x309 <= 1
   0 <= x311 <= 1
   0 <= x313 <= 1
   0 <= x315 <= 1
binary
  x32
  x33
  x34
  x35
  x36
  x37
  x38
  x39
  x40
  x41
  x42
  x43
  x44
  x45
  x46
  x47
  x48
  x49
  x50
  x51
  x52
  x54
  x55
  x56
  x58
  x59
  x61
  x62
  x64
  x65
  x67
  x68
  x70
  x71
  x73
  x74
  x76
  x77
  x79
  x80
  x82
  x83
  x85
  x86
  x88
  x89
  x91
  x92
  x94
  x95
  x97
  x99
  x100
  x102
  x103
  x105
  x106
  x108
  x109
  x111
  x112
  x114
  x115
  x117
  x118
  x120
  x121
  x123
  x124
  x126
  x127
  x129
  x130
  x132
  x134
  x257
  x259
  x261
  x263
  x265
  x267
  x269
  x271
  x273
  x275
  x277
  x279
  x281
  x283
  x285
  x287
  x289
  x291
  x293
  x295
  x297
  x299
  x301
  x303
  x305
  x307
  x309
  x311
  x313
  x315
end
